%mem=30MW
%nprocshared=1
genchk rpw91pw91

H2SO4

0 1
 16                  0.00000000    0.00000100    0.16514700
 8                 -0.57180600   -1.14792900    0.83837500
 8                  0.57180700    1.14793500    0.83836600
 8                  1.10816700   -0.61534000   -0.86182700
 1                  1.69118500    0.12062500   -1.13351300
 8                 -1.10816800    0.61533300   -0.86182900
 1                 -1.69118700   -0.12063400   -1.13350900
