%mem=40MW
%nprocshared=1
# freq 6-311++g(3df,3pd) scrf=check guess=read

NH3

0 1
 1                  1.81717400   -0.47179600   -0.27286400
 1                  0.18282600   -0.47179600   -0.27286400
 7                  1.00000000    0.00000000    0.11694200
 1                  1.00000000    0.94359200   -0.27286400